objective value:                                    0
lambda[1,24]*                                       5 	(obj:0)
lambda[1,25]*                                       2 	(obj:0)
lambda[1,27]*                                       1 	(obj:0)
lambda[1,28]*                                       2 	(obj:0)
lambda[0,29]*                                       7 	(obj:0)
lambda[0,30]*                                       3 	(obj:0)
